benchmarks_vrp/CMT3/fixed_c/CMT3_0.vrp
NAME: CMT3_0
TYPE: CVRP
COMMENT: 826.14 - Cluster Nr.0
DIMENSION: 17
CAPACITY: 200
EDGE_WEIGHT_TYPE: EUC_2D
NODE_COORD_TYPE: TWOD_COORDS
NODE_COORD_SECTION: 
4 20 26
6 22 22
7 28 18
9 17 34
15 22 27
1 26 27
12 15 30
17 21 24
8 30 25
14 18 24
11 25 21
16 37 31
10 25 24
2 35 35
3 26 35
5 25 30
13 36 26
DEPOT_SECTION: 
2
-1
DEMAND_SECTION: 
1 27
5 3
16 14
9 3
2 0
15 11
14 22
10 20
11 12
8 23
4 9
7 26
6 2
17 28
13 18
12 26
3 15
EOF
