benchmarks_vrp/CMT3/fixed_c/CMT3_0.tour
NAME: CMT3_0 solution
TYPE: TOUR
TOUR_SECTION:
2 3 9 12 14 6 17 4 15 5 -1
2 1 10 11 7 8 13 16 -1
-1
EOF